\ LP format - for model browsing. Use MPS format to capture full model detail.
Minimize
 
Subject To
 R01_0: <= 1
 R01_1: <= 1
 R02_0: = 0
 R02_1: = 0
 R04_0: = 1
 R04_1: = 1
 R04_2: = 1
 R04_3: = 1
 R04_4: = 1
 R05_0: = 1
 R05_1: = 1
 R05_2: = 1
 R05_3: = 1
 R05_4: = 1
Bounds
End
